DIMENSION: 12
EDGE_WEIGHT_TYPE: EXPLICIT
EDGE_WEIGHT_FORMAT: FULL_MATRIX
EDGE_WEIGHT_SECTION:
32767 32767 53 16 91 98 32767 45 53 37 38 32 
32767 32767 68 16 17 32767 32767 30 56 32767 32767 32767 
53 68 32767 15 32767 32767 97 8 32767 54 32767 43 
16 16 15 32767 32767 30 32767 32767 32767 73 32767 85 
91 17 32767 32767 32767 69 84 73 32767 97 32767 46 
98 32767 32767 30 69 32767 1 31 83 1 32767 32767 
32767 32767 97 32767 84 1 32767 94 26 45 38 11 
45 30 8 32767 73 31 94 32767 68 69 72 89 
53 56 32767 32767 32767 83 26 68 32767 43 32767 95 
37 32767 54 73 97 1 45 69 43 32767 32767 32767 
38 32767 32767 32767 32767 32767 38 72 32767 32767 32767 14 
32 32767 43 85 46 32767 11 89 95 32767 14 32767 
EOF